certificates/rado_a10_c298_N30.cnf
c Rad2 upper bound instance: x1 + 10*x2 - x3 = 298, interval [1,30]
p cnf 30 128
1 3 30 0
-1 -3 -30 0
2 4 30 0
-2 -4 -30 0
3 5 30 0
-3 -5 -30 0
4 6 30 0
-4 -6 -30 0
5 7 30 0
-5 -7 -30 0
6 8 30 0
-6 -8 -30 0
7 9 30 0
-7 -9 -30 0
8 10 30 0
-8 -10 -30 0
1 9 29 0
-1 -9 -29 0
9 11 30 0
-9 -11 -30 0
2 10 29 0
-2 -10 -29 0
10 12 30 0
-10 -12 -30 0
3 11 29 0
-3 -11 -29 0
11 13 30 0
-11 -13 -30 0
4 12 29 0
-4 -12 -29 0
12 14 30 0
-12 -14 -30 0
5 13 29 0
-5 -13 -29 0
13 15 30 0
-13 -15 -30 0
6 14 29 0
-6 -14 -29 0
14 16 30 0
-14 -16 -30 0
7 15 29 0
-7 -15 -29 0
15 17 30 0
-15 -17 -30 0
8 16 29 0
-8 -16 -29 0
16 18 30 0
-16 -18 -30 0
9 17 29 0
-9 -17 -29 0
17 19 30 0
-17 -19 -30 0
10 18 29 0
-10 -18 -29 0
18 20 30 0
-18 -20 -30 0
1 19 28 0
-1 -19 -28 0
11 19 29 0
-11 -19 -29 0
19 21 30 0
-19 -21 -30 0
2 20 28 0
-2 -20 -28 0
12 20 29 0
-12 -20 -29 0
20 22 30 0
-20 -22 -30 0
3 21 28 0
-3 -21 -28 0
13 21 29 0
-13 -21 -29 0
21 23 30 0
-21 -23 -30 0
4 22 28 0
-4 -22 -28 0
14 22 29 0
-14 -22 -29 0
22 24 30 0
-22 -24 -30 0
5 23 28 0
-5 -23 -28 0
15 23 29 0
-15 -23 -29 0
23 25 30 0
-23 -25 -30 0
6 24 28 0
-6 -24 -28 0
16 24 29 0
-16 -24 -29 0
24 26 30 0
-24 -26 -30 0
7 25 28 0
-7 -25 -28 0
17 25 29 0
-17 -25 -29 0
25 27 30 0
-25 -27 -30 0
8 26 28 0
-8 -26 -28 0
18 26 29 0
-18 -26 -29 0
26 28 30 0
-26 -28 -30 0
9 27 28 0
-9 -27 -28 0
19 27 29 0
-19 -27 -29 0
27 29 30 0
-27 -29 -30 0
10 28 0
-10 -28 0
20 28 29 0
-20 -28 -29 0
28 30 0
-28 -30 0
1 27 29 0
-1 -27 -29 0
11 28 29 0
-11 -28 -29 0
21 29 0
-21 -29 0
2 27 30 0
-2 -27 -30 0
12 28 30 0
-12 -28 -30 0
22 29 30 0
-22 -29 -30 0
