certificates/rado_a10_c298_N30.drat
-30 0
28 0
-10 0
8 0
12 0
-26 0
24 0
-6 0
4 0
-29 0
-22 0
27 0
21 0
0
